
#(C) 2016 by FIZ Karlsruhe - Leibniz Institute for Information Infrastructure.  All rights reserved.
data_100596-ICSD
_database_code_ICSD 100596
_audit_creation_date 1980-01-01
_audit_update_record 1985-06-11
_chemical_name_systematic 'Potassium vanadium oxide (2/8/16)'
_chemical_formula_structural 'K2 V8 O16'
_chemical_formula_sum 'K2 O16 V8'
_chemical_name_structure_type KRu4O8
_exptl_crystal_density_diffrn 4.26
_publ_section_title
'New compounds A(2-x) V8 O16 (A = K, Tl) with Hollandite type structure'
loop_
_citation_id
_citation_journal_full
_citation_year
_citation_journal_volume
_citation_page_first
_citation_page_last
_citation_journal_id_ASTM
primary 'Materials Research Bulletin' 1979 14 1463 1468 MRBUAC
loop_
_publ_author_name
'Abriel, W.'
'Rau, F.'
'Range, K.J.'
_cell_length_a 9.963(5)
_cell_length_b 9.963(5)
_cell_length_c 2.916(2)
_cell_angle_alpha 90.
_cell_angle_beta 90.
_cell_angle_gamma 90.
_cell_volume 289.45
_cell_formula_units_Z 1
_symmetry_space_group_name_H-M 'I 4/m'
_symmetry_Int_Tables_number 87
_refine_ls_R_factor_all 0.043
loop_
_symmetry_equiv_pos_site_id
_symmetry_equiv_pos_as_xyz
1 '-y, x, -z'
2 'y, -x, -z'
3 'x, y, -z'
4 '-x, -y, -z'
5 'y, -x, z'
6 '-y, x, z'
7 '-x, -y, z'
8 'x, y, z'
9 '-y+1/2, x+1/2, -z+1/2'
10 'y+1/2, -x+1/2, -z+1/2'
11 'x+1/2, y+1/2, -z+1/2'
12 '-x+1/2, -y+1/2, -z+1/2'
13 'y+1/2, -x+1/2, z+1/2'
14 '-y+1/2, x+1/2, z+1/2'
15 '-x+1/2, -y+1/2, z+1/2'
16 'x+1/2, y+1/2, z+1/2'
loop_
_atom_type_symbol
_atom_type_oxidation_number
K1+ 1
V3+ 3.75
O2- -2
loop_
_atom_site_label
_atom_site_type_symbol
_atom_site_symmetry_multiplicity
_atom_site_Wyckoff_symbol
_atom_site_fract_x
_atom_site_fract_y
_atom_site_fract_z
_atom_site_B_iso_or_equiv
_atom_site_occupancy
_atom_site_attached_hydrogens
K1 K1+ 2 b 0 0 0.5 . 1. 0
V1 V3+ 8 h 0.3516(1) 0.1693(1) 0 . 1. 0
O1 O2- 8 h 0.5392(4) 0.1651(5) 0 . 1. 0
O2 O2- 8 h 0.1552(4) 0.1985(4) 0 . 1. 0
loop_
_atom_site_aniso_label
_atom_site_aniso_type_symbol
_atom_site_aniso_U_11
_atom_site_aniso_U_22
_atom_site_aniso_U_33
_atom_site_aniso_U_12
_atom_site_aniso_U_13
_atom_site_aniso_U_23
K1 K1+ 0.026(1) 0.026(1) 0.122(8) 0 0 0
V1 V3+ 0.0076(4) 0.0075(4) 0.033(1) 0.0005(3) 0 0
O1 O2- 0.006(1) 0.010(2) 0.032(5) 0.000(1) 0 0
O2 O2- 0.008(1) 0.009(1) 0.015(5) 0.001(1) 0 0
#End of TTdata_100596-ICSD