
#(C) 2017 by FIZ Karlsruhe - Leibniz Institute for Information Infrastructure.  All rights reserved.
data_152680-ICSD
_database_code_ICSD 152680
_audit_creation_date 2006-10-01
_chemical_name_systematic 'Lanthanum strontium trioxomanganate (0.8/0.2/1)'
_chemical_formula_structural '(La0.8 Sr0.2) (Mn O3)'
_chemical_formula_sum 'La0.8 Mn1 O3 Sr0.2'
_chemical_name_structure_type Perovskite-NdAlO3
_exptl_crystal_density_diffrn 6.43
_publ_section_title

;
The effect of deficit of strontium on structural, magnetic and electrical
properties of La0.8 Sr0.2-x (vac)x Mn O3 manganites
;
loop_
_citation_id
_citation_journal_full
_citation_year
_citation_journal_volume
_citation_page_first
_citation_page_last
_citation_journal_id_ASTM
primary 'Journal of Alloys and Compounds' 2005 394 51 57 JALCEU
loop_
_publ_author_name
'Dhahri, Ja.'
'Zemni, S.'
'Cherif, K.'
'Dhahri, J.'
'Oumezzine, M.'
'Ghedira, M.'
'Vincent, H.'
_cell_length_a 5.5346(2)
_cell_length_b 5.5346(2)
_cell_length_c 13.5259(9)
_cell_angle_alpha 90.
_cell_angle_beta 90.
_cell_angle_gamma 120.
_cell_volume 358.81
_cell_formula_units_Z 6
_symmetry_space_group_name_H-M 'R -3 c H'
_symmetry_Int_Tables_number 167
_refine_ls_R_factor_all 0.0144
loop_
_symmetry_equiv_pos_site_id
_symmetry_equiv_pos_as_xyz
1 'x-y, -y, -z+1/2'
2 '-x, -x+y, -z+1/2'
3 'y, x, -z+1/2'
4 'x-y, x, -z'
5 'y, -x+y, -z'
6 '-x, -y, -z'
7 '-x+y, y, z+1/2'
8 'x, x-y, z+1/2'
9 '-y, -x, z+1/2'
10 '-x+y, -x, z'
11 '-y, x-y, z'
12 'x, y, z'
13 'x-y+2/3, -y+1/3, -z+5/6'
14 '-x+2/3, -x+y+1/3, -z+5/6'
15 'y+2/3, x+1/3, -z+5/6'
16 'x-y+2/3, x+1/3, -z+1/3'
17 'y+2/3, -x+y+1/3, -z+1/3'
18 '-x+2/3, -y+1/3, -z+1/3'
19 '-x+y+2/3, y+1/3, z+5/6'
20 'x+2/3, x-y+1/3, z+5/6'
21 '-y+2/3, -x+1/3, z+5/6'
22 '-x+y+2/3, -x+1/3, z+1/3'
23 '-y+2/3, x-y+1/3, z+1/3'
24 'x+2/3, y+1/3, z+1/3'
25 'x-y+1/3, -y+2/3, -z+1/6'
26 '-x+1/3, -x+y+2/3, -z+1/6'
27 'y+1/3, x+2/3, -z+1/6'
28 'x-y+1/3, x+2/3, -z+2/3'
29 'y+1/3, -x+y+2/3, -z+2/3'
30 '-x+1/3, -y+2/3, -z+2/3'
31 '-x+y+1/3, y+2/3, z+1/6'
32 'x+1/3, x-y+2/3, z+1/6'
33 '-y+1/3, -x+2/3, z+1/6'
34 '-x+y+1/3, -x+2/3, z+2/3'
35 '-y+1/3, x-y+2/3, z+2/3'
36 'x+1/3, y+2/3, z+2/3'
loop_
_atom_type_symbol
_atom_type_oxidation_number
La3+ 3
Sr2+ 2
Mn3+ 3.2
O2- -2
loop_
_atom_site_label
_atom_site_type_symbol
_atom_site_symmetry_multiplicity
_atom_site_Wyckoff_symbol
_atom_site_fract_x
_atom_site_fract_y
_atom_site_fract_z
_atom_site_B_iso_or_equiv
_atom_site_occupancy
_atom_site_attached_hydrogens
La1 La3+ 6 a 0 0 0.25 0.39(5) 0.8 0
Sr1 Sr2+ 6 a 0 0 0.25 0.39(5) 0.2 0
Mn1 Mn3+ 6 b 0 0 0 0.31(2) 1. 0
O1 O2- 18 e 0.547(4) 0 0.25 0.65(2) 1. 0
#End of TTdata_152680-ICSD