
#(C) 2016 by FIZ Karlsruhe - Leibniz Institute for Information Infrastructure.  All rights reserved.
data_1486-ICSD
_database_code_ICSD 1486
_audit_creation_date 1980-01-01
_audit_update_record 2010-02-01
_chemical_name_systematic 'Potassium catena-vanadate'
_chemical_formula_structural 'K (V O3)'
_chemical_formula_sum 'K1 O3 V1'
_chemical_name_structure_type KVO3
_exptl_crystal_density_diffrn 2.89
_publ_section_title

;
The crystal chemistry of the M(+) V O3 (M(+)= Li, Na, K, (N H4), Tl, Rb, and
Cs) pyroxenes
;
loop_
_citation_id
_citation_journal_full
_citation_year
_citation_journal_volume
_citation_page_first
_citation_page_last
_citation_journal_id_ASTM
primary 'Journal of Solid State Chemistry' 1977 22 157 170 JSSCBI
loop_
_publ_author_name
'Hawthorne, F.C.'
'Calvo, C.'
_cell_length_a 5.176(2)
_cell_length_b 10.794(3)
_cell_length_c 5.680(2)
_cell_angle_alpha 90.
_cell_angle_beta 90.
_cell_angle_gamma 90.
_cell_volume 317.34
_cell_formula_units_Z 4
_symmetry_space_group_name_H-M 'P b c m'
_symmetry_Int_Tables_number 57
_refine_ls_R_factor_all 0.074
loop_
_symmetry_equiv_pos_site_id
_symmetry_equiv_pos_as_xyz
1 'x, -y+1/2, z+1/2'
2 '-x, y+1/2, z'
3 'x, y, -z+1/2'
4 '-x, -y, -z'
5 '-x, y+1/2, -z+1/2'
6 'x, -y+1/2, -z'
7 '-x, -y, z+1/2'
8 'x, y, z'
loop_
_atom_type_symbol
_atom_type_oxidation_number
K1+ 1
V5+ 5
O2- -2
loop_
_atom_site_label
_atom_site_type_symbol
_atom_site_symmetry_multiplicity
_atom_site_Wyckoff_symbol
_atom_site_fract_x
_atom_site_fract_y
_atom_site_fract_z
_atom_site_B_iso_or_equiv
_atom_site_occupancy
_atom_site_attached_hydrogens
K1 K1+ 4 d 0.9357(4) 0.3954(2) 0.25 . 1. 0
V1 V5+ 4 d 0.4765(3) 0.1617(1) 0.25 . 1. 0
O1 O2- 4 d 0.1602(11) 0.1486(6) 0.25 . 1. 0
O2 O2- 4 d 0.6107(12) 0.0241(6) 0.25 . 1. 0
O3 O2- 4 c 0.5888(11) 0.25 0 . 1. 0
loop_
_atom_site_aniso_label
_atom_site_aniso_type_symbol
_atom_site_aniso_U_11
_atom_site_aniso_U_22
_atom_site_aniso_U_33
_atom_site_aniso_U_12
_atom_site_aniso_U_13
_atom_site_aniso_U_23
K1 K1+ 0.0267(9) 0.0189(6) 0.0294(10) -.0062(6) 0 0
V1 V5+ 0.0136(5) 0.0136(6) 0.0064(5) 0.0008(6) 0 0
O1 O2- 0.0166(27) 0.0272(35) 0.0260(31) -.0025(25) 0 0
O2 O2- 0.0266(31) 0.0153(24) 0.0245(29) 0.0059(25) 0 0
O3 O2- 0.0227(29) 0.0212(24) 0.0108(23) 0 0 0.0031(10)
#End of TTdata_1486-ICSD