
#(C) 2019 by FIZ Karlsruhe - Leibniz Institute for Information Infrastructure.  All rights reserved.
data_188895-ICSD
_database_code_ICSD 188895
_audit_creation_date 2014-02-01
_chemical_name_systematic 'Lanthanum strontium iron tetraoxide'
_chemical_formula_structural '(La Sr) Fe O4'
_chemical_formula_sum 'Fe1 La1 O4 Sr1'
_chemical_name_structure_type K2MgF4
_exptl_crystal_density_diffrn 6.05
_cell_measurement_temperature 10.
_publ_section_title 'Magnetic structure and magnon dispersion in La Sr Fe O4'
loop_
_citation_id
_citation_journal_full
_citation_year
_citation_journal_volume
_citation_page_first
_citation_page_last
_citation_journal_id_ASTM
primary 'Physical Review B: Condensed Matter and Materials Physics' 2013 87
054433-1 054433-8 PRBMDO
loop_
_publ_author_name
'Qureshi, N.'
'Ulbrich, H.'
'Sidis, Y.'
'Cousson, A.'
'Braden, M.'
_cell_length_a 3.8709(1)
_cell_length_b 3.8709(1)
_cell_length_c 12.6837(4)
_cell_angle_alpha 90.
_cell_angle_beta 90.
_cell_angle_gamma 90.
_cell_volume 190.05
_cell_formula_units_Z 2
_symmetry_space_group_name_H-M 'I 4/m m m'
_symmetry_Int_Tables_number 139
_refine_ls_R_factor_all 0.0265
loop_
_symmetry_equiv_pos_site_id
_symmetry_equiv_pos_as_xyz
1 'y, x, -z'
2 '-y, -x, -z'
3 '-y, x, -z'
4 'y, -x, -z'
5 '-x, y, -z'
6 'x, -y, -z'
7 'x, y, -z'
8 '-x, -y, -z'
9 '-y, -x, z'
10 'y, x, z'
11 'y, -x, z'
12 '-y, x, z'
13 'x, -y, z'
14 '-x, y, z'
15 '-x, -y, z'
16 'x, y, z'
17 'y+1/2, x+1/2, -z+1/2'
18 '-y+1/2, -x+1/2, -z+1/2'
19 '-y+1/2, x+1/2, -z+1/2'
20 'y+1/2, -x+1/2, -z+1/2'
21 '-x+1/2, y+1/2, -z+1/2'
22 'x+1/2, -y+1/2, -z+1/2'
23 'x+1/2, y+1/2, -z+1/2'
24 '-x+1/2, -y+1/2, -z+1/2'
25 '-y+1/2, -x+1/2, z+1/2'
26 'y+1/2, x+1/2, z+1/2'
27 'y+1/2, -x+1/2, z+1/2'
28 '-y+1/2, x+1/2, z+1/2'
29 'x+1/2, -y+1/2, z+1/2'
30 '-x+1/2, y+1/2, z+1/2'
31 '-x+1/2, -y+1/2, z+1/2'
32 'x+1/2, y+1/2, z+1/2'
loop_
_atom_type_symbol
_atom_type_oxidation_number
La3+ 3
Sr2+ 2
Fe2+ 2.84
O2- -2
loop_
_atom_site_label
_atom_site_type_symbol
_atom_site_symmetry_multiplicity
_atom_site_Wyckoff_symbol
_atom_site_fract_x
_atom_site_fract_y
_atom_site_fract_z
_atom_site_B_iso_or_equiv
_atom_site_occupancy
_atom_site_attached_hydrogens
La1 La3+ 4 e 0 0 0.3585(1) . 0.5 0
Sr1 Sr2+ 4 e 0 0 0.3585(1) . 0.5 0
Fe1 Fe2+ 2 a 0 0 0 . 1. 0
O1 O2- 4 c 0 0.5 0 . 0.99(2) 0
O2 O2- 4 e 0 0 0.1694(2) . 0.97(2) 0
loop_
_atom_site_aniso_label
_atom_site_aniso_type_symbol
_atom_site_aniso_U_11
_atom_site_aniso_U_22
_atom_site_aniso_U_33
_atom_site_aniso_U_12
_atom_site_aniso_U_13
_atom_site_aniso_U_23
La1 La3+ 0.0032(6) 0.0032(6) 0.007(1) 0. 0. 0.
Sr1 Sr2+ 0.0032(6) 0.0032(6) 0.007(1) 0. 0. 0.
Fe1 Fe2+ 0.0017(7) 0.0017(7) 0.013(1) 0. 0. 0.
O1 O2- 0.0050(9) 0.0034(9) 0.012(1) 0. 0. 0.
O2 O2- 0.0160(9) 0.0160(9) 0.011(1) 0. 0. 0.
#End of TTdata_188895-ICSD