
#(C) 2016 by FIZ Karlsruhe - Leibniz Institute for Information Infrastructure.  All rights reserved.
data_202615-ICSD
_database_code_ICSD 202615
_audit_creation_date 1989-06-19
_audit_update_record 1990-05-24
_chemical_name_systematic 'Strontium manganese(IV) oxide'
_chemical_formula_structural 'Sr Mn O3'
_chemical_formula_sum 'Mn1 O3 Sr1'
_chemical_name_structure_type BaMnO3
_exptl_crystal_density_diffrn 5.44
_cell_measurement_temperature 290.
_publ_section_title
'The Structural and Magnetic Properties of Sr Mn O3: A Reinvestigation'
loop_
_citation_id
_citation_journal_full
_citation_year
_citation_journal_volume
_citation_page_first
_citation_page_last
_citation_journal_id_ASTM
primary 'Journal of Solid State Chemistry' 1988 74 60 66 JSSCBI
loop_
_publ_author_name
'Battle, P.D.'
'Gibb, T.C.'
'Jones, C.W.'
_cell_length_a 5.4434(2)
_cell_length_b 5.4434(2)
_cell_length_c 9.0704(1)
_cell_angle_alpha 90.
_cell_angle_beta 90.
_cell_angle_gamma 120.
_cell_volume 232.75
_cell_formula_units_Z 4
_symmetry_space_group_name_H-M 'P 63/m m c'
_symmetry_Int_Tables_number 194
_refine_ls_R_factor_all 0.103
loop_
_symmetry_equiv_pos_site_id
_symmetry_equiv_pos_as_xyz
1 'x, x-y, -z+1/2'
2 '-x+y, y, -z+1/2'
3 '-y, -x, -z+1/2'
4 '-x+y, -x, -z+1/2'
5 '-y, x-y, -z+1/2'
6 'x, y, -z+1/2'
7 '-x, -x+y, z+1/2'
8 'x-y, -y, z+1/2'
9 'y, x, z+1/2'
10 'x-y, x, z+1/2'
11 'y, -x+y, z+1/2'
12 '-x, -y, z+1/2'
13 '-x, -x+y, -z'
14 'x-y, -y, -z'
15 'y, x, -z'
16 'x-y, x, -z'
17 'y, -x+y, -z'
18 '-x, -y, -z'
19 'x, x-y, z'
20 '-x+y, y, z'
21 '-y, -x, z'
22 '-x+y, -x, z'
23 '-y, x-y, z'
24 'x, y, z'
loop_
_atom_type_symbol
_atom_type_oxidation_number
Sr2+ 2
Mn4+ 4
O2- -2
loop_
_atom_site_label
_atom_site_type_symbol
_atom_site_symmetry_multiplicity
_atom_site_Wyckoff_symbol
_atom_site_fract_x
_atom_site_fract_y
_atom_site_fract_z
_atom_site_B_iso_or_equiv
_atom_site_occupancy
_atom_site_attached_hydrogens
Sr1 Sr2+ 2 a 0 0 0 0.31(7) 1. 0
Sr2 Sr2+ 2 c 0.3333 0.6667 0.25 0.49(6) 1. 0
Mn1 Mn4+ 4 f 0.3333 0.6667 0.6122(5) 0.16(5) 1. 0
O1 O2- 6 g 0.5 0 0 0.95(4) 1. 0
O2 O2- 6 h -.1807(2) -.3614(4) 0.25 0.23(4) 1. 0
#End of TTdata_202615-ICSD